JulietBench/Juliet_Based_Patch_Bench/FFmpeg/CWE-189-Numeric-Errors/CVE_2011_3974_bd968d260aef322fb32e254a3de0d2036c57bd56/cve3/Resultcavs_decode_frame_Snippet_patch2NEQ.smt2
; benchmark generated from python API
(set-info :status unknown)
(declare-fun R () (_ BitVec 32))
(declare-fun rsi () (_ BitVec 64))
(declare-fun rdi () (_ BitVec 64))
(assert
 (let (($x34 (and (distinct (_ bv40 32) R) true)))
 (let ((?x15 ((_ extract 7 0) rsi)))
 (let ((?x58 (concat (_ bv0 21) ?x15)))
 (let ((?x59 (bvmul (_ bv536870911 29) ?x58)))
 (let ((?x14 ((_ extract 7 0) rdi)))
 (let ((?x52 (concat (_ bv0 21) ?x14)))
 (let ((?x60 (bvadd ?x52 ?x59)))
 (let ((?x61 (concat ?x60 (_ bv0 3))))
 (let (($x25 (and (distinct R ?x61) true)))
 (let (($x36 (and $x25 $x34)))
 (let (($x50 (= (_ bv40 32) R)))
 (let (($x23 (= R ?x61)))
 (let (($x38 (and $x23 $x50)))
 (let (($x43 (or $x38 $x36)))
 (not $x43))))))))))))))))
(check-sat)
